c 1 CONFIG_TOYSH_ARRAYS
c 2 CONFIG_TOYSH_PROFILE
c 3 CONFIG_DF_PEDANTIC
c 4 CONFIG_TOYSH_PROCARGS
c 5 CONFIG_TOYSH_ENVVARS
c 6 CONFIG_TOYSH_LOCALS
c 7 CONFIG_MKE2FS_LABEL
c 8 CONFIG_TOYSH_FLOWCTL
c 9 CONFIG_READLINK_F
c 10 CONFIG_TOYSH_JOBCTL
c 11 CONFIG_MKE2FS_EXTENDED
c 12 CONFIG_TOYSH
c 13 CONFIG_TOYSH_PIPES
c 14 CONFIG_MKE2FS_JOURNAL
c 15 CONFIG_TOYSH_TTY
c 16 CONFIG_MKE2FS_GEN
c 17 CONFIG_TOYSH_WILDCARDS
c 18 CONFIG_TOYSH_BUILTINS
c 19 CONFIG_MKE2FS
c 20 CONFIG_DF
c 21 CONFIG_TOYSH_QUOTES
c 22 CONFIG_READLINK
c 23 __Root__
p cnf 23 41
23 0
-20 23 0
-3 23 0
-19 23 0
-16 23 0
-22 23 0
-9 23 0
-7 23 0
-17 23 0
-21 23 0
-11 23 0
-5 23 0
-12 23 0
-15 23 0
-1 23 0
-6 23 0
-10 23 0
-2 23 0
-8 23 0
-18 23 0
-4 23 0
-13 23 0
-14 23 0
-3 20 0
-16 19 0
-9 22 0
-7 19 0
-17 21 0
-11 19 0
-5 21 0
12 -15 0
-1 6 0
5 -6 0
12 -21 0
-10 15 0
-2 15 0
-8 12 0
12 -18 0
-4 21 0
12 -13 0
-14 19 0
